p cnf 20 49
-1 3 10 -4 14 -12 -15 0
3 -10 -15 1 13 -7 19 11 -6 0
-19 3 -7 -8 1 0
7 10 -19 -18 -11 3 2 0
4 1 17 6 0
-7 -3 -1 5 -11 2 0
-1 -17 -11 3 7 4 0
7 1 -10 -12 -4 0
10 -18 -8 0
-2 5 4 -16 0
-18 0
5 1 -9 -3 0
-1 -19 0
-4 18 0
-16 2 3 5 -8 0
13 -10 0
-1 9 2 -20 0
0
-3 5 12 2 -10 0
-10 -1 2 0
10 7 -11 0
-5 0
-10 17 4 -5 0
6 0
-15 0
19 -11 0
14 -20 -10 -1 17 0
-1 -3 16 0
-20 -4 3 6 0
3 0
2 0
13 3 0
18 0
-14 19 9 0
9 0
5 1 9 0
-9 1 0
-11 0
-1 0
-4 11 -1 0
20 -1 0
14 -3 4 19 -20 0
19 7 -4 0
-2 -5 0
-2 6 13 0
-12 1 -5 0
4 3 0
18 0
3 -1 0
